; benchmark generated from python API
(set-info :status unknown)
(declare-fun x_days () Int)
(declare-fun y_days () Int)
(assert
 (>= x_days (- 36525)))
(assert
 (<= x_days 36523))
(assert
 (>= y_days (- 36525)))
(assert
 (<= y_days 36523))
(assert
 (= x_days 7275))
(assert
 (= y_days 6910))
(assert
 (let ((?x2892 (+ x_days 730179)))
 (let ((?x3259 (mod ?x2892 146097)))
 (let ((?x3454 (div ?x3259 36524)))
 (let ((?x3503 (ite (<= 4 ?x3454) 3 ?x3454)))
 (let ((?x616 (- ?x3259 (* ?x3503 36524))))
 (let ((?x1019 (mod ?x616 1461)))
 (let ((?x968 (div ?x1019 365)))
 (let ((?x801 (ite (<= 4 ?x968) 3 ?x968)))
 (let ((?x826 (+ (+ (* (div ?x2892 146097) 400) (* ?x3503 100)) (* (div ?x616 1461) 4))))
 (let ((?x750 (+ (+ ?x826 ?x801) 1)))
 (let (($x570 (or (and (= (mod ?x750 4) 0) (and (distinct (mod ?x750 100) 0) true)) (= (mod ?x750 400) 0))))
 (let ((?x1176 (- ?x1019 (* ?x801 365))))
 (let ((?x1026 (ite $x570 31 31)))
 (let (($x1727 (>= ?x1176 ?x1026)))
 (let ((?x513 (ite $x1727 (+ (- ?x1176 ?x1026) 1) (+ (- ?x1176 (ite $x570 0 0)) 1))))
 (let ((?x631 (ite $x570 60 59)))
 (let (($x3024 (>= ?x1176 ?x631)))
 (let ((?x2891 (ite $x570 91 90)))
 (let (($x1144 (>= ?x1176 ?x2891)))
 (let ((?x720 (ite $x1144 (+ (- ?x1176 ?x2891) 1) (ite $x3024 (+ (- ?x1176 ?x631) 1) ?x513))))
 (let ((?x1265 (ite $x570 121 120)))
 (let (($x948 (>= ?x1176 ?x1265)))
 (let ((?x919 (ite $x570 152 151)))
 (let (($x483 (>= ?x1176 ?x919)))
 (let ((?x885 (ite $x483 (+ (- ?x1176 ?x919) 1) (ite $x948 (+ (- ?x1176 ?x1265) 1) ?x720))))
 (let ((?x1139 (ite $x570 182 181)))
 (let (($x435 (>= ?x1176 ?x1139)))
 (let ((?x3041 (ite $x570 213 212)))
 (let (($x3269 (>= ?x1176 ?x3041)))
 (let ((?x474 (ite $x3269 (+ (- ?x1176 ?x3041) 1) (ite $x435 (+ (- ?x1176 ?x1139) 1) ?x885))))
 (let ((?x824 (ite $x570 244 243)))
 (let (($x1142 (>= ?x1176 ?x824)))
 (let ((?x869 (ite $x570 274 273)))
 (let (($x3258 (>= ?x1176 ?x869)))
 (let ((?x891 (ite $x3258 (+ (- ?x1176 ?x869) 1) (ite $x1142 (+ (- ?x1176 ?x824) 1) ?x474))))
 (let ((?x590 (ite $x570 305 304)))
 (let (($x1699 (>= ?x1176 ?x590)))
 (let ((?x592 (ite $x570 335 334)))
 (let (($x800 (>= ?x1176 ?x592)))
 (let ((?x2702 (ite $x800 (+ (- ?x1176 ?x592) 1) (ite $x1699 (+ (- ?x1176 ?x590) 1) ?x891))))
 (let ((?x853 (+ (* 0 12) 1)))
 (let ((?x803 (ite $x948 5 (ite $x1144 4 (ite $x3024 3 (ite $x1727 2 1))))))
 (let ((?x1131 (ite $x1142 9 (ite $x3269 8 (ite $x435 7 (ite $x483 6 ?x803))))))
 (let ((?x945 (- (+ (ite $x800 12 (ite $x1699 11 (ite $x3258 10 ?x1131))) ?x853) 1)))
 (let ((?x595 (+ (mod ?x945 12) 1)))
 (let ((?x830 (ite (or (= ?x595 4) (= ?x595 6) (= ?x595 9) (= ?x595 11)) 30 31)))
 (let (($x895 (and (= (mod (+ ?x750 (+ 0 (div ?x945 12))) 4) 0) (and (distinct (mod (+ ?x750 (+ 0 (div ?x945 12))) 100) 0) true))))
 (let (($x452 (or $x895 (= (mod (+ ?x750 (+ 0 (div ?x945 12))) 400) 0))))
 (let ((?x844 (ite (= ?x595 2) (ite $x452 29 28) ?x830)))
 (let ((?x825 (ite (> 1 ?x2702) 1 (ite (> ?x2702 ?x844) ?x844 ?x2702))))
 (let ((?x823 (ite (> 1 ?x825) 1 (ite (> ?x825 ?x844) ?x844 ?x825))))
 (let ((?x2460 (ite (= 2 ?x595) (ite $x452 31 31) (ite (= 1 ?x595) (ite $x452 0 0) 0))))
 (let ((?x852 (ite (= 4 ?x595) (ite $x452 91 90) (ite (= 3 ?x595) (ite $x452 60 59) ?x2460))))
 (let ((?x792 (ite (= 6 ?x595) (ite $x452 152 151) (ite (= 5 ?x595) (ite $x452 121 120) ?x852))))
 (let ((?x693 (ite (= 8 ?x595) (ite $x452 213 212) (ite (= 7 ?x595) (ite $x452 182 181) ?x792))))
 (let ((?x2785 (ite (= 10 ?x595) (ite $x452 274 273) (ite (= 9 ?x595) (ite $x452 244 243) ?x693))))
 (let ((?x829 (ite (= 12 ?x595) (ite $x452 335 334) (ite (= 11 ?x595) (ite $x452 305 304) ?x2785))))
 (let ((?x1095 (+ (* 365 (- (+ ?x750 (+ 0 (div ?x945 12))) 1)) (div (- (+ ?x750 (+ 0 (div ?x945 12))) 1) 4))))
 (let ((?x767 (+ (- ?x1095 (div (- (+ ?x750 (+ 0 (div ?x945 12))) 1) 100)) (div (- (+ ?x750 (+ 0 (div ?x945 12))) 1) 400))))
 (let ((?x870 (+ (+ (- (+ (+ ?x767 ?x829) (- ?x823 1)) 730179) 0) 730179)))
 (let ((?x1062 (mod ?x870 146097)))
 (let ((?x991 (div ?x1062 36524)))
 (let ((?x970 (ite (<= 4 ?x991) 3 ?x991)))
 (let ((?x3484 (- ?x1062 (* ?x970 36524))))
 (let ((?x577 (mod ?x3484 1461)))
 (let ((?x2893 (div ?x577 365)))
 (let ((?x538 (ite (<= 4 ?x2893) 3 ?x2893)))
 (let ((?x1128 (+ (+ (* (div ?x870 146097) 400) (* ?x970 100)) (* (div ?x3484 1461) 4))))
 (let ((?x442 (+ (+ ?x1128 ?x538) 1)))
 (let (($x403 (or (and (= (mod ?x442 4) 0) (and (distinct (mod ?x442 100) 0) true)) (= (mod ?x442 400) 0))))
 (let ((?x1004 (- ?x577 (* ?x538 365))))
 (let ((?x1135 (ite $x403 31 31)))
 (let (($x835 (>= ?x1004 ?x1135)))
 (let ((?x935 (ite $x835 (+ (- ?x1004 ?x1135) 1) (+ (- ?x1004 (ite $x403 0 0)) 1))))
 (let ((?x1145 (ite $x403 60 59)))
 (let (($x497 (>= ?x1004 ?x1145)))
 (let ((?x966 (ite $x403 91 90)))
 (let (($x922 (>= ?x1004 ?x966)))
 (let ((?x958 (ite $x922 (+ (- ?x1004 ?x966) 1) (ite $x497 (+ (- ?x1004 ?x1145) 1) ?x935))))
 (let ((?x3030 (ite $x403 121 120)))
 (let (($x673 (>= ?x1004 ?x3030)))
 (let ((?x1507 (ite $x403 152 151)))
 (let (($x1079 (>= ?x1004 ?x1507)))
 (let ((?x719 (ite $x1079 (+ (- ?x1004 ?x1507) 1) (ite $x673 (+ (- ?x1004 ?x3030) 1) ?x958))))
 (let ((?x489 (ite $x403 182 181)))
 (let (($x927 (>= ?x1004 ?x489)))
 (let ((?x932 (ite $x403 213 212)))
 (let (($x422 (>= ?x1004 ?x932)))
 (let ((?x1728 (ite $x422 (+ (- ?x1004 ?x932) 1) (ite $x927 (+ (- ?x1004 ?x489) 1) ?x719))))
 (let ((?x447 (ite $x403 244 243)))
 (let (($x965 (>= ?x1004 ?x447)))
 (let ((?x944 (ite $x403 274 273)))
 (let (($x3459 (>= ?x1004 ?x944)))
 (let ((?x1136 (ite $x3459 (+ (- ?x1004 ?x944) 1) (ite $x965 (+ (- ?x1004 ?x447) 1) ?x1728))))
 (let ((?x480 (ite $x403 305 304)))
 (let (($x641 (>= ?x1004 ?x480)))
 (let ((?x3529 (ite $x403 335 334)))
 (let (($x620 (>= ?x1004 ?x3529)))
 (let ((?x755 (ite $x620 (+ (- ?x1004 ?x3529) 1) (ite $x641 (+ (- ?x1004 ?x480) 1) ?x1136))))
 (let (($x765 (= 0 0)))
 (let (($x1037 (= (mod (ite $x765 (+ ?x750 (+ 0 (div ?x945 12))) ?x442) 400) 0)))
 (let (($x682 (and (distinct (mod (ite $x765 (+ ?x750 (+ 0 (div ?x945 12))) ?x442) 100) 0) true)))
 (let (($x742 (= (mod (ite $x765 (+ ?x750 (+ 0 (div ?x945 12))) ?x442) 4) 0)))
 (let (($x627 (or (and $x742 $x682) $x1037)))
 (let ((?x3210 (ite $x673 5 (ite $x922 4 (ite $x497 3 (ite $x835 2 1))))))
 (let ((?x3271 (ite $x965 9 (ite $x422 8 (ite $x927 7 (ite $x1079 6 ?x3210))))))
 (let ((?x607 (ite $x765 ?x595 (ite $x620 12 (ite $x641 11 (ite $x3459 10 ?x3271))))))
 (let ((?x598 (ite (= 2 ?x607) (ite $x627 31 31) (ite (= 1 ?x607) (ite $x627 0 0) 0))))
 (let ((?x972 (ite (= 4 ?x607) (ite $x627 91 90) (ite (= 3 ?x607) (ite $x627 60 59) ?x598))))
 (let ((?x2176 (ite (= 6 ?x607) (ite $x627 152 151) (ite (= 5 ?x607) (ite $x627 121 120) ?x972))))
 (let ((?x1769 (ite (= 8 ?x607) (ite $x627 213 212) (ite (= 7 ?x607) (ite $x627 182 181) ?x2176))))
 (let ((?x597 (ite (= 10 ?x607) (ite $x627 274 273) (ite (= 9 ?x607) (ite $x627 244 243) ?x1769))))
 (let ((?x1725 (ite (= 12 ?x607) (ite $x627 335 334) (ite (= 11 ?x607) (ite $x627 305 304) ?x597))))
 (let ((?x528 (+ ?x750 (+ 0 (div ?x945 12)))))
 (let ((?x1006 (ite $x765 ?x528 ?x442)))
 (let ((?x1021 (- ?x1006 1)))
 (let ((?x488 (+ (- (+ (* 365 ?x1021) (div ?x1021 4)) (div ?x1021 100)) (div ?x1021 400))))
 (= (- (+ (+ ?x488 ?x1725) (- (ite $x765 ?x823 ?x755) 1)) 730179) 7304)))))))))))))))))))))))))))))))))))))))))))))))))))))))))))))))))))))))))))))))))))))))))))))))))))))))))))))))))))))))
(assert
 (let ((?x3043 (+ y_days 730179)))
(let ((?x713 (mod ?x3043 146097)))
(let ((?x587 (div ?x713 36524)))
(let ((?x754 (ite (<= 4 ?x587) 3 ?x587)))
(let ((?x1143 (- ?x713 (* ?x754 36524))))
(let ((?x603 (mod ?x1143 1461)))
(let ((?x3200 (div ?x603 365)))
(let ((?x3719 (ite (<= 4 ?x3200) 3 ?x3200)))
(let ((?x757 (+ (+ (* (div ?x3043 146097) 400) (* ?x754 100)) (* (div ?x1143 1461) 4))))
(let ((?x3158 (+ (+ ?x757 ?x3719) 1)))
(let (($x845 (or (and (= (mod ?x3158 4) 0) (and (distinct (mod ?x3158 100) 0) true)) (= (mod ?x3158 400) 0))))
(let ((?x2056 (- ?x603 (* ?x3719 365))))
(let ((?x415 (ite $x845 31 31)))
(let (($x716 (>= ?x2056 ?x415)))
(let ((?x436 (ite $x716 (+ (- ?x2056 ?x415) 1) (+ (- ?x2056 (ite $x845 0 0)) 1))))
(let ((?x412 (ite $x845 60 59)))
(let (($x2742 (>= ?x2056 ?x412)))
(let ((?x1149 (ite $x845 91 90)))
(let (($x705 (>= ?x2056 ?x1149)))
(let ((?x459 (ite $x705 (+ (- ?x2056 ?x1149) 1) (ite $x2742 (+ (- ?x2056 ?x412) 1) ?x436))))
(let ((?x1536 (ite $x845 121 120)))
(let (($x1845 (>= ?x2056 ?x1536)))
(let ((?x494 (ite $x845 152 151)))
(let (($x2704 (>= ?x2056 ?x494)))
(let ((?x879 (ite $x2704 (+ (- ?x2056 ?x494) 1) (ite $x1845 (+ (- ?x2056 ?x1536) 1) ?x459))))
(let ((?x1528 (ite $x845 182 181)))
(let (($x2048 (>= ?x2056 ?x1528)))
(let ((?x860 (ite $x845 213 212)))
(let (($x753 (>= ?x2056 ?x860)))
(let ((?x1186 (ite $x753 (+ (- ?x2056 ?x860) 1) (ite $x2048 (+ (- ?x2056 ?x1528) 1) ?x879))))
(let ((?x413 (ite $x845 244 243)))
(let (($x3088 (>= ?x2056 ?x413)))
(let ((?x1091 (ite $x845 274 273)))
(let (($x3157 (>= ?x2056 ?x1091)))
(let ((?x1160 (ite $x3157 (+ (- ?x2056 ?x1091) 1) (ite $x3088 (+ (- ?x2056 ?x413) 1) ?x1186))))
(let ((?x546 (ite $x845 305 304)))
(let (($x516 (>= ?x2056 ?x546)))
(let ((?x2665 (ite $x845 335 334)))
(let (($x2666 (>= ?x2056 ?x2665)))
(let ((?x591 (ite $x2666 (+ (- ?x2056 ?x2665) 1) (ite $x516 (+ (- ?x2056 ?x546) 1) ?x1160))))
(let ((?x853 (+ (* 0 12) 1)))
(let ((?x3021 (ite $x1845 5 (ite $x705 4 (ite $x2742 3 (ite $x716 2 1))))))
(let ((?x793 (ite $x3088 9 (ite $x753 8 (ite $x2048 7 (ite $x2704 6 ?x3021))))))
(let ((?x735 (- (+ (ite $x2666 12 (ite $x516 11 (ite $x3157 10 ?x793))) ?x853) 1)))
(let ((?x918 (+ (mod ?x735 12) 1)))
(let ((?x553 (ite (or (= ?x918 4) (= ?x918 6) (= ?x918 9) (= ?x918 11)) 30 31)))
(let (($x2917 (and (= (mod (+ ?x3158 (+ 0 (div ?x735 12))) 4) 0) (and (distinct (mod (+ ?x3158 (+ 0 (div ?x735 12))) 100) 0) true))))
(let (($x568 (or $x2917 (= (mod (+ ?x3158 (+ 0 (div ?x735 12))) 400) 0))))
(let ((?x706 (ite (= ?x918 2) (ite $x568 29 28) ?x553)))
(let ((?x457 (ite (> 1 ?x591) 1 (ite (> ?x591 ?x706) ?x706 ?x591))))
(let ((?x1772 (ite (> 1 ?x457) 1 (ite (> ?x457 ?x706) ?x706 ?x457))))
(let ((?x714 (ite (= 2 ?x918) (ite $x568 31 31) (ite (= 1 ?x918) (ite $x568 0 0) 0))))
(let ((?x3426 (ite (= 4 ?x918) (ite $x568 91 90) (ite (= 3 ?x918) (ite $x568 60 59) ?x714))))
(let ((?x778 (ite (= 6 ?x918) (ite $x568 152 151) (ite (= 5 ?x918) (ite $x568 121 120) ?x3426))))
(let ((?x1056 (ite (= 8 ?x918) (ite $x568 213 212) (ite (= 7 ?x918) (ite $x568 182 181) ?x778))))
(let ((?x2101 (ite (= 10 ?x918) (ite $x568 274 273) (ite (= 9 ?x918) (ite $x568 244 243) ?x1056))))
(let ((?x1463 (ite (= 12 ?x918) (ite $x568 335 334) (ite (= 11 ?x918) (ite $x568 305 304) ?x2101))))
(let ((?x578 (+ (* 365 (- (+ ?x3158 (+ 0 (div ?x735 12))) 1)) (div (- (+ ?x3158 (+ 0 (div ?x735 12))) 1) 4))))
(let ((?x2743 (+ (- ?x578 (div (- (+ ?x3158 (+ 0 (div ?x735 12))) 1) 100)) (div (- (+ ?x3158 (+ 0 (div ?x735 12))) 1) 400))))
(let ((?x796 (+ (+ (- (+ (+ ?x2743 ?x1463) (- ?x1772 1)) 730179) 0) 730179)))
(let ((?x446 (mod ?x796 146097)))
(let ((?x710 (div ?x446 36524)))
(let ((?x969 (ite (<= 4 ?x710) 3 ?x710)))
(let ((?x584 (- ?x446 (* ?x969 36524))))
(let ((?x707 (mod ?x584 1461)))
(let ((?x418 (div ?x707 365)))
(let ((?x769 (ite (<= 4 ?x418) 3 ?x418)))
(let ((?x1042 (+ (+ (* (div ?x796 146097) 400) (* ?x969 100)) (* (div ?x584 1461) 4))))
(let ((?x1533 (+ (+ ?x1042 ?x769) 1)))
(let (($x3023 (or (and (= (mod ?x1533 4) 0) (and (distinct (mod ?x1533 100) 0) true)) (= (mod ?x1533 400) 0))))
(let ((?x915 (- ?x707 (* ?x769 365))))
(let ((?x1099 (ite $x3023 31 31)))
(let (($x3631 (>= ?x915 ?x1099)))
(let ((?x579 (ite $x3631 (+ (- ?x915 ?x1099) 1) (+ (- ?x915 (ite $x3023 0 0)) 1))))
(let ((?x3114 (ite $x3023 60 59)))
(let (($x1678 (>= ?x915 ?x3114)))
(let ((?x1519 (ite $x3023 91 90)))
(let (($x1124 (>= ?x915 ?x1519)))
(let ((?x509 (ite $x1124 (+ (- ?x915 ?x1519) 1) (ite $x1678 (+ (- ?x915 ?x3114) 1) ?x579))))
(let ((?x505 (ite $x3023 121 120)))
(let (($x951 (>= ?x915 ?x505)))
(let ((?x676 (ite $x3023 152 151)))
(let (($x909 (>= ?x915 ?x676)))
(let ((?x1106 (ite $x909 (+ (- ?x915 ?x676) 1) (ite $x951 (+ (- ?x915 ?x505) 1) ?x509))))
(let ((?x813 (ite $x3023 182 181)))
(let (($x2459 (>= ?x915 ?x813)))
(let ((?x3495 (ite $x3023 213 212)))
(let (($x1112 (>= ?x915 ?x3495)))
(let ((?x456 (ite $x1112 (+ (- ?x915 ?x3495) 1) (ite $x2459 (+ (- ?x915 ?x813) 1) ?x1106))))
(let ((?x1078 (ite $x3023 244 243)))
(let (($x3128 (>= ?x915 ?x1078)))
(let ((?x1465 (ite $x3023 274 273)))
(let (($x2705 (>= ?x915 ?x1465)))
(let ((?x1064 (ite $x2705 (+ (- ?x915 ?x1465) 1) (ite $x3128 (+ (- ?x915 ?x1078) 1) ?x456))))
(let ((?x1132 (ite $x3023 305 304)))
(let (($x580 (>= ?x915 ?x1132)))
(let ((?x525 (ite $x3023 335 334)))
(let (($x734 (>= ?x915 ?x525)))
(let ((?x938 (ite $x734 (+ (- ?x915 ?x525) 1) (ite $x580 (+ (- ?x915 ?x1132) 1) ?x1064))))
(let (($x765 (= 0 0)))
(let (($x3468 (= (mod (ite $x765 (+ ?x3158 (+ 0 (div ?x735 12))) ?x1533) 400) 0)))
(let (($x3729 (and (distinct (mod (ite $x765 (+ ?x3158 (+ 0 (div ?x735 12))) ?x1533) 100) 0) true)))
(let (($x3561 (= (mod (ite $x765 (+ ?x3158 (+ 0 (div ?x735 12))) ?x1533) 4) 0)))
(let (($x3738 (or (and $x3561 $x3729) $x3468)))
(let ((?x923 (ite $x951 5 (ite $x1124 4 (ite $x1678 3 (ite $x3631 2 1))))))
(let ((?x3127 (ite $x3128 9 (ite $x1112 8 (ite $x2459 7 (ite $x909 6 ?x923))))))
(let ((?x1020 (ite $x765 ?x918 (ite $x734 12 (ite $x580 11 (ite $x2705 10 ?x3127))))))
(let ((?x1695 (ite (= 2 ?x1020) (ite $x3738 31 31) (ite (= 1 ?x1020) (ite $x3738 0 0) 0))))
(let ((?x694 (ite (= 4 ?x1020) (ite $x3738 91 90) (ite (= 3 ?x1020) (ite $x3738 60 59) ?x1695))))
(let ((?x3983 (ite (= 6 ?x1020) (ite $x3738 152 151) (ite (= 5 ?x1020) (ite $x3738 121 120) ?x694))))
(let ((?x2869 (ite (= 8 ?x1020) (ite $x3738 213 212) (ite (= 7 ?x1020) (ite $x3738 182 181) ?x3983))))
(let ((?x2765 (ite (= 10 ?x1020) (ite $x3738 274 273) (ite (= 9 ?x1020) (ite $x3738 244 243) ?x2869))))
(let ((?x2378 (ite (= 12 ?x1020) (ite $x3738 335 334) (ite (= 11 ?x1020) (ite $x3738 305 304) ?x2765))))
(let ((?x3198 (+ ?x3158 (+ 0 (div ?x735 12)))))
(let ((?x666 (ite $x765 ?x3198 ?x1533)))
(let ((?x1017 (- ?x666 1)))
(let ((?x902 (+ (- (+ (* 365 ?x1017) (div ?x1017 4)) (div ?x1017 100)) (div ?x1017 400))))
(= (- (+ (+ ?x902 ?x2378) (- (ite $x765 ?x1772 ?x938) 1)) 730179) 6938)))))))))))))))))))))))))))))))))))))))))))))))))))))))))))))))))))))))))))))))))))))))))))))))))))))))))))))))))))))))
(check-sat)
